NAME: tsp20_29
COMMENT: 20-tsp problem (Padberg/Rinaldi)
TYPE: TSP
DIMENSION: 20
EDGE_WEIGHT_TYPE : EUC_2D
NODE_COORD_SECTION
1 29 1
2 20 16
3 39 21
4 1 9
5 32 29
6 4 37
7 23 13
8 20 16
9 29 1
10 11 31
11 7 18
12 32 7
13 32 32
14 3 38
15 39 12
16 15 31
17 32 8
18 38 26
19 12 27
20 35 25
